letting initialStacks = [32, 44, 27, 22, 24, 47, 9, 33, 18, 6, 5, 1, 41, 14, 20, 10, 46, 35, 23, 30, 29, 21, 37, 34, 50, 16, 51, 17, 43, 26, 42, 40, 39, 28, 11, 49, 4, 8, 48, 31, 25, 45, 38, 19, 15, 12, 13, 3, 7, 36, 2]
